c [ -1 -2 3 -4 -5 6 -7 8 -9 -10 ]
c r=8.000 p0=0.080
p cnf 10 80
5 7 3 0
-9 -3 -4 0
3 -4 -6 0
2 9 -1 0
-9 5 4 0
6 4 -3 0
-5 -7 -4 0
-9 -7 -3 0
8 -7 9 0
2 6 5 0
7 -9 -8 0
-2 4 -7 0
-4 -2 3 0
-2 -3 7 0
-5 -9 2 0
-2 4 -9 0
5 -1 -2 0
-9 3 -1 0
4 -8 3 0
-10 3 -1 0
5 -1 -7 0
4 -6 -7 0
1 8 7 0
-2 5 -4 0
-1 6 9 0
-9 -5 7 0
6 -10 2 0
-1 4 -2 0
-6 5 -10 0
4 -2 -8 0
-10 8 -6 0
8 -9 4 0
6 10 -2 0
-4 2 7 0
-10 5 -4 0
-3 6 4 0
-3 -4 7 0
4 3 1 0
7 -1 -9 0
10 8 4 0
-8 -4 7 0
-3 -5 -4 0
-3 -5 9 0
2 7 8 0
-4 3 -2 0
-3 -4 -9 0
10 3 2 0
7 6 9 0
-2 10 5 0
-6 -4 8 0
-9 -6 4 0
1 -3 -4 0
6 -7 -3 0
-2 8 1 0
-10 5 -6 0
3 10 6 0
-4 -8 1 0
-1 10 2 0
-1 9 -2 0
7 8 2 0
9 7 -1 0
1 -9 10 0
7 -5 -9 0
-4 8 7 0
7 10 3 0
-8 -6 -7 0
-1 2 -7 0
-4 -10 2 0
-7 3 5 0
-8 -9 -4 0
3 7 4 0
-8 7 -9 0
8 -1 -5 0
9 -5 2 0
7 3 -1 0
-1 -7 6 0
9 -10 5 0
-6 -5 -7 0
-8 2 -5 0
-10 4 -7 0
